
Gurobi 8.1.0 (linux64, Python) logging started Thu Nov 22 09:28:53 2018

Academic license - for non-commercial use only

Gurobi 8.1.0 (linux64, Python) logging started Thu Nov 22 15:27:08 2018

Academic license - for non-commercial use only

Gurobi 8.1.0 (linux64, Python) logging started Thu Nov 22 15:27:59 2018

Academic license - for non-commercial use only

Gurobi 8.1.0 (linux64, Python) logging started Thu Nov 22 15:28:02 2018

Academic license - for non-commercial use only

Gurobi 8.1.0 (linux64, Python) logging started Thu Nov 22 15:28:03 2018

Academic license - for non-commercial use only

Gurobi 8.1.0 (linux64, Python) logging started Thu Nov 22 15:28:04 2018

Academic license - for non-commercial use only

Gurobi 8.1.0 (linux64, Python) logging started Thu Nov 22 15:28:04 2018

Academic license - for non-commercial use only

Gurobi 8.1.0 (linux64, Python) logging started Thu Nov 22 15:28:05 2018

Academic license - for non-commercial use only

Gurobi 8.1.0 (linux64, Python) logging started Thu Nov 22 15:28:24 2018

Academic license - for non-commercial use only

Gurobi 8.1.0 (linux64, Python) logging started Thu Nov 22 15:28:43 2018

Academic license - for non-commercial use only

Gurobi 8.1.0 (linux64, Python) logging started Thu Nov 22 15:33:48 2018

Academic license - for non-commercial use only

Gurobi 8.1.0 (linux64, Python) logging started Thu Nov 22 15:34:27 2018

Academic license - for non-commercial use only

Gurobi 8.1.0 (linux64, Python) logging started Thu Nov 22 15:35:20 2018

Academic license - for non-commercial use only

Gurobi 8.1.0 (linux64, Python) logging started Thu Nov 22 15:36:12 2018

Academic license - for non-commercial use only

Gurobi 8.1.0 (linux64, Python) logging started Thu Nov 22 15:37:13 2018

Academic license - for non-commercial use only

Gurobi 8.1.0 (linux64, Python) logging started Thu Nov 22 15:39:07 2018

Academic license - for non-commercial use only

Gurobi 8.1.0 (linux64, Python) logging started Thu Nov 22 15:39:57 2018

Academic license - for non-commercial use only

Gurobi 8.1.0 (linux64, Python) logging started Thu Nov 22 16:38:55 2018

Academic license - for non-commercial use only

Gurobi 8.1.0 (linux64, Python) logging started Thu Nov 22 17:04:08 2018

Academic license - for non-commercial use only

Gurobi 8.1.0 (linux64, Python) logging started Thu Nov 22 17:08:48 2018

Academic license - for non-commercial use only

Gurobi 8.1.0 (linux64, Python) logging started Thu Nov 22 17:11:00 2018

Academic license - for non-commercial use only

Gurobi 8.1.0 (linux64, Python) logging started Thu Nov 22 17:11:10 2018

Academic license - for non-commercial use only

Gurobi 8.1.0 (linux64, Python) logging started Thu Nov 22 17:11:18 2018

Academic license - for non-commercial use only

Gurobi 8.1.0 (linux64, Python) logging started Thu Nov 22 17:15:39 2018

Academic license - for non-commercial use only

Gurobi 8.1.0 (linux64, Python) logging started Thu Nov 22 17:15:54 2018

Academic license - for non-commercial use only

Gurobi 8.1.0 (linux64, Python) logging started Thu Nov 22 17:16:04 2018

Academic license - for non-commercial use only

Gurobi 8.1.0 (linux64, Python) logging started Thu Nov 22 17:16:31 2018

Academic license - for non-commercial use only

Gurobi 8.1.0 (linux64, Python) logging started Thu Nov 22 17:16:40 2018

Academic license - for non-commercial use only

Gurobi 8.1.0 (linux64, Python) logging started Thu Nov 22 17:16:47 2018

Academic license - for non-commercial use only

Gurobi 8.1.0 (linux64, Python) logging started Thu Nov 22 19:41:36 2018

Academic license - for non-commercial use only

Gurobi 8.1.0 (linux64, Python) logging started Thu Nov 22 19:41:44 2018

Academic license - for non-commercial use only

Gurobi 8.1.0 (linux64, Python) logging started Thu Nov 22 19:43:03 2018

Academic license - for non-commercial use only

Gurobi 8.1.0 (linux64, Python) logging started Thu Nov 22 19:43:44 2018

Academic license - for non-commercial use only

Gurobi 8.1.0 (linux64, Python) logging started Thu Nov 22 19:46:31 2018

Academic license - for non-commercial use only

Gurobi 8.1.0 (linux64, Python) logging started Thu Nov 22 19:50:04 2018

Academic license - for non-commercial use only

Gurobi 8.1.0 (linux64, Python) logging started Thu Nov 22 19:50:13 2018

Academic license - for non-commercial use only

Gurobi 8.1.0 (linux64, Python) logging started Thu Nov 22 19:58:21 2018

Academic license - for non-commercial use only

Gurobi 8.1.0 (linux64, Python) logging started Thu Nov 22 19:58:47 2018

Academic license - for non-commercial use only

Gurobi 8.1.0 (linux64, Python) logging started Thu Nov 22 20:01:14 2018

Academic license - for non-commercial use only

Gurobi 8.1.0 (linux64, Python) logging started Thu Nov 22 20:01:29 2018

Academic license - for non-commercial use only

Gurobi 8.1.0 (linux64, Python) logging started Thu Nov 22 20:01:47 2018

Academic license - for non-commercial use only

Gurobi 8.1.0 (linux64, Python) logging started Thu Nov 22 20:07:05 2018

Academic license - for non-commercial use only

Gurobi 8.1.0 (linux64, Python) logging started Thu Nov 22 20:11:09 2018

Academic license - for non-commercial use only

Gurobi 8.1.0 (linux64, Python) logging started Thu Nov 22 20:11:56 2018

Academic license - for non-commercial use only

Gurobi 8.1.0 (linux64, Python) logging started Thu Nov 22 20:12:41 2018

Academic license - for non-commercial use only

Gurobi 8.1.0 (linux64, Python) logging started Thu Nov 22 20:13:07 2018

Academic license - for non-commercial use only

Gurobi 8.1.0 (linux64, Python) logging started Thu Nov 22 20:13:17 2018

Academic license - for non-commercial use only

Gurobi 8.1.0 (linux64, Python) logging started Thu Nov 22 20:28:39 2018

Academic license - for non-commercial use only

Gurobi 8.1.0 (linux64, Python) logging started Thu Nov 22 20:30:31 2018

Academic license - for non-commercial use only

Gurobi 8.1.0 (linux64, Python) logging started Thu Nov 22 20:34:14 2018

Academic license - for non-commercial use only

Gurobi 8.1.0 (linux64, Python) logging started Thu Nov 22 20:35:24 2018

Academic license - for non-commercial use only

Gurobi 8.1.0 (linux64, Python) logging started Thu Nov 22 20:37:27 2018

Academic license - for non-commercial use only

Gurobi 8.1.0 (linux64, Python) logging started Thu Nov 22 20:38:42 2018

Academic license - for non-commercial use only

Gurobi 8.1.0 (linux64, Python) logging started Thu Nov 22 20:43:56 2018

Academic license - for non-commercial use only

Gurobi 8.1.0 (linux64, Python) logging started Thu Nov 22 20:44:14 2018

Academic license - for non-commercial use only

Gurobi 8.1.0 (linux64, Python) logging started Thu Nov 22 20:44:41 2018

Academic license - for non-commercial use only

Gurobi 8.1.0 (linux64, Python) logging started Thu Nov 22 20:44:52 2018

Academic license - for non-commercial use only

Gurobi 8.1.0 (linux64, Python) logging started Thu Nov 22 20:45:02 2018

Academic license - for non-commercial use only

Gurobi 8.1.0 (linux64, Python) logging started Thu Nov 22 20:45:17 2018

Academic license - for non-commercial use only

Gurobi 8.1.0 (linux64, Python) logging started Thu Nov 22 20:45:27 2018

Academic license - for non-commercial use only

Gurobi 8.1.0 (linux64, Python) logging started Thu Nov 22 20:53:26 2018

Academic license - for non-commercial use only

Gurobi 8.1.0 (linux64, Python) logging started Thu Nov 22 20:54:04 2018

Academic license - for non-commercial use only

Gurobi 8.1.0 (linux64, Python) logging started Thu Nov 22 20:56:16 2018

Academic license - for non-commercial use only

Gurobi 8.1.0 (linux64, Python) logging started Thu Nov 22 21:01:45 2018

Academic license - for non-commercial use only

Gurobi 8.1.0 (linux64, Python) logging started Thu Nov 22 22:17:46 2018

Academic license - for non-commercial use only

Gurobi 8.1.0 (linux64, Python) logging started Thu Nov 22 22:24:38 2018

Academic license - for non-commercial use only

Gurobi 8.1.0 (linux64, Python) logging started Thu Nov 22 22:24:44 2018

Academic license - for non-commercial use only

Gurobi 8.1.0 (linux64, Python) logging started Thu Nov 22 22:25:55 2018

Academic license - for non-commercial use only

Gurobi 8.1.0 (linux64, Python) logging started Thu Nov 22 22:26:09 2018

Academic license - for non-commercial use only

Gurobi 8.1.0 (linux64, Python) logging started Thu Nov 22 22:26:17 2018

Academic license - for non-commercial use only

Gurobi 8.1.0 (linux64, Python) logging started Thu Nov 22 22:41:44 2018

Academic license - for non-commercial use only

Gurobi 8.1.0 (linux64, Python) logging started Thu Nov 22 22:41:53 2018

Academic license - for non-commercial use only

Gurobi 8.1.0 (linux64, Python) logging started Thu Nov 22 22:42:01 2018

Academic license - for non-commercial use only

Gurobi 8.1.0 (linux64, Python) logging started Thu Nov 22 22:43:30 2018

Academic license - for non-commercial use only

Gurobi 8.1.0 (linux64, Python) logging started Thu Nov 22 22:43:40 2018

Academic license - for non-commercial use only

Gurobi 8.1.0 (linux64, Python) logging started Thu Nov 22 22:43:51 2018

Academic license - for non-commercial use only

Gurobi 8.1.0 (linux64, Python) logging started Thu Nov 22 22:44:26 2018

Academic license - for non-commercial use only

Gurobi 8.1.0 (linux64, Python) logging started Thu Nov 22 22:44:37 2018

Academic license - for non-commercial use only

Gurobi 8.1.0 (linux64, Python) logging started Thu Nov 22 22:44:51 2018

Academic license - for non-commercial use only

Gurobi 8.1.0 (linux64, Python) logging started Thu Nov 22 22:45:02 2018

Academic license - for non-commercial use only

Gurobi 8.1.0 (linux64, Python) logging started Thu Nov 22 22:45:15 2018

Academic license - for non-commercial use only

Gurobi 8.1.0 (linux64, Python) logging started Thu Nov 22 22:48:12 2018

Academic license - for non-commercial use only

Gurobi 8.1.0 (linux64, Python) logging started Thu Nov 22 22:49:36 2018

Academic license - for non-commercial use only

Gurobi 8.1.0 (linux64, Python) logging started Thu Nov 22 22:50:15 2018

Academic license - for non-commercial use only

Gurobi 8.1.0 (linux64, Python) logging started Thu Nov 22 22:50:45 2018

Academic license - for non-commercial use only

Gurobi 8.1.0 (linux64, Python) logging started Thu Nov 22 22:51:24 2018

Academic license - for non-commercial use only

Gurobi 8.1.0 (linux64, Python) logging started Thu Nov 22 22:51:33 2018

Academic license - for non-commercial use only

Gurobi 8.1.0 (linux64, Python) logging started Thu Nov 22 23:08:35 2018

Academic license - for non-commercial use only

Gurobi 8.1.0 (linux64, Python) logging started Thu Nov 22 23:08:51 2018

Academic license - for non-commercial use only

Gurobi 8.1.0 (linux64, Python) logging started Thu Nov 22 23:09:21 2018

Academic license - for non-commercial use only

Gurobi 8.1.0 (linux64, Python) logging started Thu Nov 22 23:09:55 2018

Academic license - for non-commercial use only

Gurobi 8.1.0 (linux64, Python) logging started Thu Nov 22 23:26:04 2018

Academic license - for non-commercial use only

Gurobi 8.1.0 (linux64, Python) logging started Thu Nov 22 23:26:27 2018

Academic license - for non-commercial use only

Gurobi 8.1.0 (linux64, Python) logging started Thu Nov 22 23:42:27 2018

Academic license - for non-commercial use only

Gurobi 8.1.0 (linux64, Python) logging started Thu Nov 22 23:43:22 2018

Academic license - for non-commercial use only

Gurobi 8.1.0 (linux64, Python) logging started Thu Nov 22 23:43:32 2018

Academic license - for non-commercial use only

Gurobi 8.1.0 (linux64, Python) logging started Thu Nov 22 23:44:58 2018

Academic license - for non-commercial use only

Gurobi 8.1.0 (linux64, Python) logging started Thu Nov 22 23:47:58 2018

Academic license - for non-commercial use only

Gurobi 8.1.0 (linux64, Python) logging started Thu Nov 22 23:49:41 2018

Academic license - for non-commercial use only

Gurobi 8.1.0 (linux64, Python) logging started Thu Nov 22 23:50:31 2018

Academic license - for non-commercial use only

Gurobi 8.1.0 (linux64, Python) logging started Fri Nov 23 00:03:37 2018

Academic license - for non-commercial use only

Gurobi 8.1.0 (linux64, Python) logging started Fri Nov 23 00:21:07 2018

Academic license - for non-commercial use only

Gurobi 8.1.0 (linux64, Python) logging started Fri Nov 23 00:21:43 2018

Academic license - for non-commercial use only

Gurobi 8.1.0 (linux64, Python) logging started Fri Nov 23 08:17:32 2018

Academic license - for non-commercial use only

Gurobi 8.1.0 (linux64, Python) logging started Fri Nov 23 08:17:44 2018

Academic license - for non-commercial use only

Gurobi 8.1.0 (linux64, Python) logging started Fri Nov 23 08:18:08 2018

Academic license - for non-commercial use only

Gurobi 8.1.0 (linux64, Python) logging started Fri Nov 23 08:18:25 2018

Academic license - for non-commercial use only

Gurobi 8.1.0 (linux64, Python) logging started Fri Nov 23 08:29:45 2018

Academic license - for non-commercial use only

Gurobi 8.1.0 (linux64, Python) logging started Fri Nov 23 08:30:17 2018

Academic license - for non-commercial use only

Gurobi 8.1.0 (linux64, Python) logging started Fri Nov 23 08:30:36 2018

Academic license - for non-commercial use only

Gurobi 8.1.0 (linux64, Python) logging started Fri Nov 23 09:27:35 2018

Academic license - for non-commercial use only

Gurobi 8.1.0 (linux64, Python) logging started Fri Nov 23 09:28:41 2018

Academic license - for non-commercial use only

Gurobi 8.1.0 (linux64, Python) logging started Fri Nov 23 09:55:00 2018

Academic license - for non-commercial use only

Gurobi 8.1.0 (linux64, Python) logging started Fri Nov 23 09:55:40 2018

Academic license - for non-commercial use only

Gurobi 8.1.0 (linux64, Python) logging started Fri Nov 23 10:07:24 2018

Academic license - for non-commercial use only

Gurobi 8.1.0 (linux64, Python) logging started Fri Nov 23 10:10:59 2018

Academic license - for non-commercial use only

Gurobi 8.1.0 (linux64, Python) logging started Fri Nov 23 10:11:54 2018

Academic license - for non-commercial use only

Gurobi 8.1.0 (linux64, Python) logging started Fri Nov 23 10:13:20 2018

Academic license - for non-commercial use only

Gurobi 8.1.0 (linux64, Python) logging started Fri Nov 23 10:13:27 2018

Academic license - for non-commercial use only

Gurobi 8.1.0 (linux64, Python) logging started Fri Nov 23 10:14:21 2018

Academic license - for non-commercial use only

Gurobi 8.1.0 (linux64, Python) logging started Fri Nov 23 10:14:36 2018

Academic license - for non-commercial use only

Gurobi 8.1.0 (linux64, Python) logging started Fri Nov 23 10:14:54 2018

Academic license - for non-commercial use only

Gurobi 8.1.0 (linux64, Python) logging started Fri Nov 23 10:15:29 2018

Academic license - for non-commercial use only

Gurobi 8.1.0 (linux64, Python) logging started Fri Nov 23 10:17:43 2018

Academic license - for non-commercial use only

Gurobi 8.1.0 (linux64, Python) logging started Fri Nov 23 10:27:52 2018

Academic license - for non-commercial use only

Gurobi 8.1.0 (linux64, Python) logging started Fri Nov 23 10:30:06 2018

Academic license - for non-commercial use only

Gurobi 8.1.0 (linux64, Python) logging started Fri Nov 23 10:31:00 2018

Academic license - for non-commercial use only

Gurobi 8.1.0 (linux64, Python) logging started Fri Nov 23 10:32:04 2018

Academic license - for non-commercial use only

Gurobi 8.1.0 (linux64, Python) logging started Fri Nov 23 10:32:37 2018

Academic license - for non-commercial use only

Gurobi 8.1.0 (linux64, Python) logging started Fri Nov 23 10:37:29 2018

Academic license - for non-commercial use only

Gurobi 8.1.0 (linux64, Python) logging started Fri Nov 23 10:38:01 2018

Academic license - for non-commercial use only

Gurobi 8.1.0 (linux64, Python) logging started Fri Nov 23 10:39:39 2018

Academic license - for non-commercial use only

Gurobi 8.1.0 (linux64, Python) logging started Fri Nov 23 10:41:42 2018

Academic license - for non-commercial use only

Gurobi 8.1.0 (linux64, Python) logging started Fri Nov 23 12:10:33 2018

Academic license - for non-commercial use only

Gurobi 8.1.0 (linux64, Python) logging started Fri Nov 23 17:23:44 2018

Academic license - for non-commercial use only

Gurobi 8.1.0 (linux64, Python) logging started Fri Nov 23 17:25:23 2018

Academic license - for non-commercial use only

Gurobi 8.1.0 (linux64, Python) logging started Fri Nov 23 17:26:01 2018

Academic license - for non-commercial use only

Gurobi 8.1.0 (linux64, Python) logging started Fri Nov 23 17:27:01 2018

Academic license - for non-commercial use only

Gurobi 8.1.0 (linux64, Python) logging started Fri Nov 23 18:13:07 2018

Academic license - for non-commercial use only

Gurobi 8.1.0 (linux64, Python) logging started Fri Nov 23 18:14:16 2018

Academic license - for non-commercial use only

Gurobi 8.1.0 (linux64, Python) logging started Fri Nov 23 18:18:14 2018

Academic license - for non-commercial use only

Gurobi 8.1.0 (linux64, Python) logging started Fri Nov 23 18:18:24 2018

Academic license - for non-commercial use only

Gurobi 8.1.0 (linux64, Python) logging started Fri Nov 23 18:18:25 2018

Academic license - for non-commercial use only

Gurobi 8.1.0 (linux64, Python) logging started Fri Nov 23 18:18:28 2018

Academic license - for non-commercial use only

Gurobi 8.1.0 (linux64, Python) logging started Fri Nov 23 18:18:28 2018

Academic license - for non-commercial use only

Gurobi 8.1.0 (linux64, Python) logging started Fri Nov 23 18:18:29 2018

Academic license - for non-commercial use only

Gurobi 8.1.0 (linux64, Python) logging started Fri Nov 23 19:00:30 2018

Academic license - for non-commercial use only

Gurobi 8.1.0 (linux64, Python) logging started Fri Nov 23 19:06:03 2018

Academic license - for non-commercial use only

Gurobi 8.1.0 (linux64, Python) logging started Fri Nov 23 19:07:09 2018

Academic license - for non-commercial use only

Gurobi 8.1.0 (linux64, Python) logging started Fri Nov 23 19:07:17 2018

Academic license - for non-commercial use only

Gurobi 8.1.0 (linux64, Python) logging started Fri Nov 23 19:20:46 2018

Academic license - for non-commercial use only

Gurobi 8.1.0 (linux64, Python) logging started Fri Nov 23 19:22:38 2018

Academic license - for non-commercial use only

Gurobi 8.1.0 (linux64, Python) logging started Fri Nov 23 19:24:29 2018

Academic license - for non-commercial use only

Gurobi 8.1.0 (linux64, Python) logging started Fri Nov 23 19:24:47 2018

Academic license - for non-commercial use only

Gurobi 8.1.0 (linux64, Python) logging started Fri Nov 23 19:25:30 2018

Academic license - for non-commercial use only

Gurobi 8.1.0 (mac64, Python) logging started Fri Nov 23 20:06:36 2018


Gurobi 8.1.0 (mac64, Python) logging started Fri Nov 23 20:07:31 2018

Academic license - for non-commercial use only

Gurobi 8.1.0 (mac64, Python) logging started Fri Nov 23 20:16:06 2018

Academic license - for non-commercial use only

Gurobi 8.1.0 (mac64, Python) logging started Fri Nov 23 20:41:34 2018

Academic license - for non-commercial use only

Gurobi 8.1.0 (mac64, Python) logging started Fri Nov 23 20:42:05 2018

Academic license - for non-commercial use only

Gurobi 8.1.0 (linux64, Python) logging started Fri Nov 23 21:00:02 2018


Gurobi 8.1.0 (linux64, Python) logging started Fri Nov 23 21:02:02 2018

Academic license - for non-commercial use only

Gurobi 8.1.0 (mac64, Python) logging started Mon Nov 26 15:13:20 2018

Academic license - for non-commercial use only
